(declare-rel loop ((Array Int Int) (Array Int Int) (Array Int Int) (Array Int Int) (Array Int Int) Int Int Int ))
(declare-rel exit ())
(declare-var i Int )
(declare-var i1 Int )
(declare-var i2 Int )
(declare-var i3 Int )
(declare-var i4 Int )
(declare-var j Int )
(declare-var j1 Int )
(declare-var j2 Int )
(declare-var j3 Int )
(declare-var j4 Int )
(declare-var j5 Int )
(declare-var j6 Int )
(declare-var j7 Int )
(declare-var j8 Int )
(declare-var t0 Int )
(declare-var t1 Int )
(declare-var t01 Int )
(declare-var t11 Int )
(declare-var t02 Int )
(declare-var t12 Int )
(declare-var t03 Int )
(declare-var t13 Int )
(declare-var index_limit Int )
(declare-var a_j Int )
(declare-var a_j1 Int )
(declare-var a_j2 Int )
(declare-var a_j3 Int )
(declare-var a_j4 Int )
(declare-var a_j5 Int )
(declare-var a_j6 Int )
(declare-var a_j7 Int )
(declare-var b_i Int )
(declare-var b_i1 Int )
(declare-var b_i2 Int )
(declare-var b_i3 Int )
(declare-var c_i Int )
(declare-var c_i1 Int )
(declare-var c_i2 Int )
(declare-var c_i3 Int )
(declare-var d_i Int )
(declare-var d_i1 Int )
(declare-var d_i2 Int )
(declare-var d_i3 Int )
(declare-var e_i Int )
(declare-var e_i1 Int )
(declare-var e_i2 Int )
(declare-var e_i3 Int )
(declare-var count Int )
(declare-var a_array (Array Int Int) )
(declare-var a_array1 (Array Int Int) )
(declare-var a_array2 (Array Int Int) )
(declare-var a_array3 (Array Int Int) )
(declare-var a_array4 (Array Int Int) )
(declare-var a_array5 (Array Int Int) )
(declare-var a_array6 (Array Int Int) )
(declare-var a_array7 (Array Int Int) )
(declare-var a_array8 (Array Int Int) )
(declare-var b_array (Array Int Int) )
(declare-var c_array (Array Int Int) )
(declare-var d_array (Array Int Int) )
(declare-var e_array (Array Int Int) )

(rule (=> 
	(and 
		(= index_limit (- (* count 4) 1))
		(= i 0)
		(= j -1)

		(< i index_limit)
		
		(= b_i (select b_array i))
		(= c_i (select c_array i))
		(= d_i (select d_array i))
		(= e_i (select e_array i))
		(= t0 (* c_i d_i))
		(= t1 (* d_i e_i))
		(= a_j (+ b_i t0))
		(= a_j1 (+ b_i t1))
		(= a_array1 (store a_array j a_j))
		(= j1 (+ j 1))
		(= a_array2 (store a_array1 j1 a_j1))
		(= j2 (+ j1 1))
		(= i1 (+ i 1))

		(= b_i1 (select b_array i1))
		(= c_i1 (select c_array i1))
		(= d_i1 (select d_array i1))
		(= e_i1 (select e_array i1))
		(= t01 (* c_i1 d_i1))
		(= t11 (* d_i1 e_i1))
		(= a_j2 (+ b_i1 t01))
		(= a_j3 (+ b_i1 t11))
		(= a_array3 (store a_array2 j2 a_j2))
		(= j3 (+ j2 1))
		(= a_array4 (store a_array3 j3 a_j3))
		(= j4 (+ j3 1))
		(= i2 (+ i1 1))

		(= b_i2 (select b_array i2))
		(= c_i2 (select c_array i2))
		(= d_i2 (select d_array i2))
		(= e_i2 (select e_array i2))
		(= t02 (* c_i2 d_i2))
		(= t12 (* d_i2 e_i2))
		(= a_j4 (+ b_i2 t02))
		(= a_j5 (+ b_i2 t12))
		(= a_array5 (store a_array4 j4 a_j4))
		(= j5 (+ j4 1))
		(= a_array6 (store a_array5 j5 a_j5))
		(= j6 (+ j5 1))
		(= i3 (+ i2 1))
	)
	(loop a_array6 b_array c_array d_array e_array i3 j6 count)
))
(rule (=> 
	(and 
		(loop a_array b_array c_array d_array e_array i j count)

		(= index_limit (- (* count 4) 1))
		(< i index_limit)
		
		(= b_i (select b_array i))
		(= c_i (select c_array i))
		(= d_i (select d_array i))
		(= e_i (select e_array i))
		(= t0 (* c_i d_i))
		(= t1 (* d_i e_i))
		(= a_j (+ b_i t0))
		(= a_j1 (+ b_i t1))
		(= a_array1 (store a_array j a_j))
		(= j1 (+ j 1))
		(= a_array2 (store a_array1 j1 a_j1))
		(= j2 (+ j1 1))
		(= i1 (+ i 1))

		(= b_i1 (select b_array i1))
		(= c_i1 (select c_array i1))
		(= d_i1 (select d_array i1))
		(= e_i1 (select e_array i1))
		(= t01 (* c_i1 d_i1))
		(= t11 (* d_i1 e_i1))
		(= a_j2 (+ b_i1 t01))
		(= a_j3 (+ b_i1 t11))
		(= a_array3 (store a_array2 j2 a_j2))
		(= j3 (+ j2 1))
		(= a_array4 (store a_array3 j3 a_j3))
		(= j4 (+ j3 1))
		(= i2 (+ i1 1))

		(= b_i2 (select b_array i2))
		(= c_i2 (select c_array i2))
		(= d_i2 (select d_array i2))
		(= e_i2 (select e_array i2))
		(= t02 (* c_i2 d_i2))
		(= t12 (* d_i2 e_i2))
		(= a_j4 (+ b_i2 t02))
		(= a_j5 (+ b_i2 t12))
		(= a_array5 (store a_array4 j4 a_j4))
		(= j5 (+ j4 1))
		(= a_array6 (store a_array5 j5 a_j5))
		(= j6 (+ j5 1))
		(= i3 (+ i2 1))

		(= b_i3 (select b_array i3))
		(= c_i3 (select c_array i3))
		(= d_i3 (select d_array i3))
		(= e_i3 (select e_array i3))
		(= t03 (* c_i3 d_i3))
		(= t13 (* d_i3 e_i3))
		(= a_j6 (+ b_i3 t03))
		(= a_j7 (+ b_i3 t13))
		(= a_array7 (store a_array6 j6 a_j6))
		(= j7 (+ j6 1))
		(= a_array8 (store a_array7 j7 a_j7))
		(= j8 (+ j7 1))
		(= i4 (+ i3 1))
	)
	(loop a_array8 b_array c_array d_array e_array i4 j8 count)
))
(rule (=> 
	(and 
		(loop a_array b_array c_array d_array e_array i j count)
		(= index_limit (- (* count 4) 1))
		(not (< i index_limit))
	)
	exit
))
(query exit)